RobustCbss/GLKH-1.1/TMP/mEgtspf.pid12922.atsp
NAME : mEgtspf.pid12922.gtsp
TYPE : ATSP
DIMENSION : 50
EDGE_WEIGHT_TYPE : EXPLICIT
EDGE_WEIGHT_FORMAT : FULL_MATRIX
EDGE_WEIGHT_SECTION
999999 5368709 5368709 5368709 5368709 5368709 5368709 5368709 5368709 5368709 5368749 5368750 5368751 5368750 5368717 5368718 5368719 5368718 5368733 5368734 5368735 5368734 5368732 5368733 5368734 5368733 5368750 5368751 5368752 5368751 5368720 5368719 5368720 5368721 5368731 5368730 5368731 5368732 5368728 5368727 5368728 5368729 5368719 5368720 5368719 5368718 5368749 5368750 5368751 5368750 
5368709 999999 5368709 5368709 5368709 5368709 5368709 5368709 5368709 5368709 5368743 5368742 5368741 5368742 5368727 5368726 5368725 5368726 5368737 5368736 5368735 5368736 5368742 5368741 5368740 5368741 5368746 5368745 5368744 5368745 5368742 5368741 5368740 5368741 5368753 5368752 5368751 5368752 5368750 5368749 5368748 5368749 5368739 5368738 5368737 5368738 5368741 5368740 5368739 5368740 
5368709 5368709 999999 5368709 5368709 5368709 5368709 5368709 5368709 5368709 5368756 5368757 5368758 5368757 5368724 5368725 5368726 5368725 5368740 5368741 5368742 5368741 5368739 5368740 5368741 5368740 5368757 5368758 5368759 5368758 5368717 5368718 5368719 5368718 5368732 5368733 5368734 5368733 5368733 5368734 5368735 5368734 5368712 5368713 5368712 5368711 5368756 5368757 5368758 5368757 
5368709 5368709 5368709 999999 5368709 5368709 5368709 5368709 5368709 5368709 5368724 5368725 5368726 5368725 5368730 5368731 5368730 5368729 5368718 5368717 5368716 5368717 5368723 5368722 5368721 5368722 5368725 5368724 5368725 5368726 5368737 5368738 5368737 5368736 5368734 5368733 5368732 5368733 5368731 5368730 5368729 5368730 5368744 5368745 5368744 5368743 5368724 5368725 5368726 5368725 
5368709 5368709 5368709 5368709 999999 5368709 5368709 5368709 5368709 5368709 5368735 5368734 5368735 5368736 5368721 5368720 5368719 5368720 5368719 5368718 5368719 5368720 5368724 5368723 5368724 5368725 5368736 5368735 5368736 5368737 5368728 5368727 5368726 5368727 5368735 5368734 5368735 5368736 5368732 5368731 5368732 5368733 5368735 5368734 5368733 5368734 5368735 5368734 5368735 5368736 
5368709 5368709 5368709 5368709 5368709 999999 5368709 5368709 5368709 5368709 5368726 5368727 5368728 5368727 5368728 5368729 5368728 5368727 5368720 5368719 5368718 5368719 5368725 5368724 5368723 5368724 5368727 5368726 5368727 5368728 5368735 5368736 5368735 5368734 5368736 5368735 5368734 5368735 5368733 5368732 5368731 5368732 5368742 5368743 5368742 5368741 5368726 5368727 5368728 5368727 
5368709 5368709 5368709 5368709 5368709 5368709 999999 5368709 5368709 5368709 5368746 5368745 5368746 5368747 5368720 5368719 5368720 5368721 5368730 5368729 5368730 5368731 5368735 5368734 5368735 5368736 5368747 5368746 5368747 5368748 5368735 5368734 5368735 5368736 5368746 5368745 5368746 5368747 5368743 5368742 5368743 5368744 5368732 5368731 5368732 5368733 5368746 5368745 5368746 5368747 
5368709 5368709 5368709 5368709 5368709 5368709 5368709 999999 5368709 5368709 5368740 5368739 5368740 5368741 5368736 5368737 5368738 5368737 5368726 5368727 5368728 5368727 5368721 5368722 5368723 5368722 5368741 5368740 5368741 5368742 5368721 5368722 5368721 5368720 5368716 5368715 5368716 5368717 5368717 5368716 5368717 5368718 5368730 5368729 5368728 5368729 5368740 5368739 5368740 5368741 
5368709 5368709 5368709 5368709 5368709 5368709 5368709 5368709 999999 5368709 5368735 5368736 5368737 5368736 5368731 5368732 5368733 5368732 5368721 5368722 5368723 5368722 5368718 5368719 5368720 5368719 5368736 5368737 5368738 5368737 5368726 5368727 5368726 5368725 5368717 5368716 5368717 5368718 5368714 5368713 5368714 5368715 5368733 5368734 5368733 5368732 5368735 5368736 5368737 5368736 
5368709 5368709 5368709 5368709 5368709 5368709 5368709 5368709 5368709 999999 5368747 5368748 5368749 5368748 5368741 5368742 5368743 5368742 5368731 5368732 5368733 5368732 5368730 5368731 5368732 5368731 5368748 5368749 5368750 5368749 5368726 5368727 5368728 5368727 5368723 5368724 5368725 5368724 5368724 5368725 5368726 5368725 5368729 5368730 5368731 5368730 5368747 5368748 5368749 5368748 
5368709 5368709 5368709 5368709 5368709 5368709 5368709 5368709 5368709 5368709 999999 0 10737418 10737418 5368744 5368745 5368744 5368743 5368728 5368729 5368728 5368727 5368729 5368730 5368729 5368728 5368715 5368714 5368713 5368714 5368751 5368752 5368751 5368750 5368736 5368737 5368736 5368735 5368735 5368736 5368735 5368734 5368758 5368759 5368758 5368757 5368714 5368715 5368714 5368713 
5368709 5368709 5368709 5368709 5368709 5368709 5368709 5368709 5368709 5368709 10737418 999999 0 10737418 5368743 5368744 5368743 5368742 5368727 5368728 5368727 5368726 5368728 5368729 5368728 5368727 5368714 5368713 5368714 5368715 5368750 5368751 5368750 5368749 5368735 5368736 5368735 5368734 5368734 5368735 5368734 5368733 5368757 5368758 5368757 5368756 5368713 5368714 5368715 5368714 
5368709 5368709 5368709 5368709 5368709 5368709 5368709 5368709 5368709 5368709 10737418 10737418 999999 0 5368744 5368743 5368742 5368743 5368728 5368727 5368726 5368727 5368729 5368728 5368727 5368728 5368715 5368714 5368715 5368716 5368751 5368750 5368749 5368750 5368736 5368735 5368734 5368735 5368735 5368734 5368733 5368734 5368758 5368757 5368756 5368757 5368712 5368713 5368714 5368713 
5368709 5368709 5368709 5368709 5368709 5368709 5368709 5368709 5368709 5368709 0 10737418 10737418 999999 5368745 5368744 5368743 5368744 5368729 5368728 5368727 5368728 5368730 5368729 5368728 5368729 5368716 5368715 5368714 5368715 5368752 5368751 5368750 5368751 5368737 5368736 5368735 5368736 5368736 5368735 5368734 5368735 5368759 5368758 5368757 5368758 5368713 5368714 5368713 5368712 
5368709 5368709 5368709 5368709 5368709 5368709 5368709 5368709 5368709 5368709 5368742 5368743 5368744 5368743 999999 0 10737418 10737418 5368726 5368727 5368728 5368727 5368725 5368724 5368725 5368726 5368743 5368744 5368745 5368744 5368727 5368726 5368725 5368726 5368738 5368737 5368736 5368737 5368735 5368734 5368733 5368734 5368726 5368727 5368726 5368725 5368742 5368743 5368744 5368743 
5368709 5368709 5368709 5368709 5368709 5368709 5368709 5368709 5368709 5368709 5368743 5368744 5368745 5368744 10737418 999999 0 10737418 5368727 5368728 5368729 5368728 5368726 5368725 5368726 5368727 5368744 5368745 5368746 5368745 5368726 5368725 5368726 5368727 5368737 5368736 5368737 5368738 5368734 5368733 5368734 5368735 5368725 5368726 5368725 5368724 5368743 5368744 5368745 5368744 
5368709 5368709 5368709 5368709 5368709 5368709 5368709 5368709 5368709 5368709 5368744 5368743 5368744 5368745 10737418 10737418 999999 0 5368728 5368727 5368728 5368729 5368727 5368726 5368727 5368728 5368745 5368744 5368745 5368746 5368727 5368726 5368727 5368728 5368738 5368737 5368738 5368739 5368735 5368734 5368735 5368736 5368726 5368725 5368724 5368725 5368744 5368743 5368744 5368745 
5368709 5368709 5368709 5368709 5368709 5368709 5368709 5368709 5368709 5368709 5368743 5368742 5368743 5368744 0 10737418 10737418 999999 5368727 5368726 5368727 5368728 5368726 5368725 5368726 5368727 5368744 5368743 5368744 5368745 5368728 5368727 5368726 5368727 5368739 5368738 5368737 5368738 5368736 5368735 5368734 5368735 5368727 5368726 5368725 5368726 5368743 5368742 5368743 5368744 
5368709 5368709 5368709 5368709 5368709 5368709 5368709 5368709 5368709 5368709 5368726 5368727 5368728 5368727 5368728 5368729 5368728 5368727 999999 0 10737418 10737418 5368717 5368716 5368715 5368716 5368727 5368728 5368729 5368728 5368735 5368736 5368735 5368734 5368728 5368727 5368726 5368727 5368725 5368724 5368723 5368724 5368742 5368743 5368742 5368741 5368726 5368727 5368728 5368727 
5368709 5368709 5368709 5368709 5368709 5368709 5368709 5368709 5368709 5368709 5368727 5368728 5368729 5368728 5368727 5368728 5368727 5368726 10737418 999999 0 10737418 5368716 5368715 5368716 5368717 5368728 5368729 5368730 5368729 5368734 5368735 5368734 5368733 5368727 5368726 5368727 5368728 5368724 5368723 5368724 5368725 5368741 5368742 5368741 5368740 5368727 5368728 5368729 5368728 
5368709 5368709 5368709 5368709 5368709 5368709 5368709 5368709 5368709 5368709 5368728 5368727 5368728 5368729 5368728 5368727 5368726 5368727 10737418 10737418 999999 0 5368717 5368716 5368717 5368718 5368729 5368728 5368729 5368730 5368735 5368734 5368733 5368734 5368728 5368727 5368728 5368729 5368725 5368724 5368725 5368726 5368742 5368741 5368740 5368741 5368728 5368727 5368728 5368729 
5368709 5368709 5368709 5368709 5368709 5368709 5368709 5368709 5368709 5368709 5368727 5368726 5368727 5368728 5368729 5368728 5368727 5368728 0 10737418 10737418 999999 5368718 5368717 5368716 5368717 5368728 5368727 5368728 5368729 5368736 5368735 5368734 5368735 5368729 5368728 5368727 5368728 5368726 5368725 5368724 5368725 5368743 5368742 5368741 5368742 5368727 5368726 5368727 5368728 
5368709 5368709 5368709 5368709 5368709 5368709 5368709 5368709 5368709 5368709 5368727 5368728 5368729 5368728 5368727 5368728 5368727 5368726 5368717 5368718 5368717 5368716 999999 0 10737418 10737418 5368728 5368729 5368730 5368729 5368734 5368735 5368734 5368733 5368723 5368722 5368721 5368722 5368720 5368719 5368718 5368719 5368741 5368742 5368741 5368740 5368727 5368728 5368729 5368728 
5368709 5368709 5368709 5368709 5368709 5368709 5368709 5368709 5368709 5368709 5368728 5368729 5368730 5368729 5368726 5368727 5368726 5368725 5368716 5368717 5368718 5368717 10737418 999999 0 10737418 5368729 5368730 5368731 5368730 5368733 5368734 5368733 5368732 5368722 5368721 5368722 5368723 5368719 5368718 5368719 5368720 5368740 5368741 5368740 5368739 5368728 5368729 5368730 5368729 
5368709 5368709 5368709 5368709 5368709 5368709 5368709 5368709 5368709 5368709 5368729 5368728 5368729 5368730 5368725 5368726 5368725 5368724 5368715 5368716 5368717 5368716 10737418 10737418 999999 0 5368730 5368729 5368730 5368731 5368734 5368733 5368732 5368733 5368723 5368722 5368723 5368724 5368720 5368719 5368720 5368721 5368741 5368740 5368739 5368740 5368729 5368728 5368729 5368730 
5368709 5368709 5368709 5368709 5368709 5368709 5368709 5368709 5368709 5368709 5368728 5368727 5368728 5368729 5368726 5368727 5368726 5368725 5368716 5368717 5368716 5368715 0 10737418 10737418 999999 5368729 5368728 5368729 5368730 5368735 5368734 5368733 5368734 5368724 5368723 5368722 5368723 5368721 5368720 5368719 5368720 5368742 5368741 5368740 5368741 5368728 5368727 5368728 5368729 
5368709 5368709 5368709 5368709 5368709 5368709 5368709 5368709 5368709 5368709 5368715 5368716 5368715 5368714 5368745 5368746 5368745 5368744 5368729 5368730 5368729 5368728 5368730 5368731 5368730 5368729 999999 0 10737418 10737418 5368752 5368753 5368752 5368751 5368737 5368738 5368737 5368736 5368736 5368737 5368736 5368735 5368759 5368760 5368759 5368758 5368717 5368718 5368717 5368716 
5368709 5368709 5368709 5368709 5368709 5368709 5368709 5368709 5368709 5368709 5368714 5368715 5368716 5368715 5368744 5368745 5368744 5368743 5368728 5368729 5368728 5368727 5368729 5368730 5368729 5368728 10737418 999999 0 10737418 5368751 5368752 5368751 5368750 5368736 5368737 5368736 5368735 5368735 5368736 5368735 5368734 5368758 5368759 5368758 5368757 5368716 5368717 5368718 5368717 
5368709 5368709 5368709 5368709 5368709 5368709 5368709 5368709 5368709 5368709 5368713 5368714 5368715 5368714 5368745 5368744 5368743 5368744 5368729 5368728 5368727 5368728 5368730 5368729 5368728 5368729 10737418 10737418 999999 0 5368752 5368751 5368750 5368751 5368737 5368736 5368735 5368736 5368736 5368735 5368734 5368735 5368759 5368758 5368757 5368758 5368715 5368716 5368717 5368716 
5368709 5368709 5368709 5368709 5368709 5368709 5368709 5368709 5368709 5368709 5368714 5368715 5368714 5368713 5368746 5368745 5368744 5368745 5368730 5368729 5368728 5368729 5368731 5368730 5368729 5368730 0 10737418 10737418 999999 5368753 5368752 5368751 5368752 5368738 5368737 5368736 5368737 5368737 5368736 5368735 5368736 5368760 5368759 5368758 5368759 5368716 5368717 5368716 5368715 
5368709 5368709 5368709 5368709 5368709 5368709 5368709 5368709 5368709 5368709 5368749 5368750 5368751 5368750 5368727 5368728 5368727 5368726 5368733 5368734 5368735 5368734 5368732 5368733 5368734 5368733 5368750 5368751 5368752 5368751 999999 0 10737418 10737418 5368725 5368726 5368727 5368726 5368726 5368727 5368728 5368727 5368719 5368720 5368719 5368718 5368749 5368750 5368751 5368750 
5368709 5368709 5368709 5368709 5368709 5368709 5368709 5368709 5368709 5368709 5368750 5368751 5368752 5368751 5368726 5368727 5368728 5368727 5368734 5368735 5368736 5368735 5368733 5368734 5368735 5368734 5368751 5368752 5368753 5368752 10737418 999999 0 10737418 5368726 5368727 5368728 5368727 5368727 5368728 5368729 5368728 5368718 5368719 5368718 5368717 5368750 5368751 5368752 5368751 
5368709 5368709 5368709 5368709 5368709 5368709 5368709 5368709 5368709 5368709 5368751 5368750 5368751 5368752 5368725 5368726 5368727 5368726 5368735 5368734 5368735 5368736 5368734 5368733 5368734 5368735 5368752 5368751 5368752 5368753 10737418 10737418 999999 0 5368727 5368726 5368727 5368728 5368728 5368727 5368728 5368729 5368719 5368718 5368717 5368718 5368751 5368750 5368751 5368752 
5368709 5368709 5368709 5368709 5368709 5368709 5368709 5368709 5368709 5368709 5368750 5368749 5368750 5368751 5368726 5368727 5368726 5368725 5368734 5368733 5368734 5368735 5368733 5368732 5368733 5368734 5368751 5368750 5368751 5368752 0 10737418 10737418 999999 5368726 5368725 5368726 5368727 5368727 5368726 5368727 5368728 5368720 5368719 5368718 5368719 5368750 5368749 5368750 5368751 
5368709 5368709 5368709 5368709 5368709 5368709 5368709 5368709 5368709 5368709 5368734 5368735 5368736 5368735 5368738 5368739 5368738 5368737 5368728 5368729 5368728 5368727 5368723 5368724 5368723 5368722 5368735 5368736 5368737 5368736 5368727 5368728 5368727 5368726 999999 0 10737418 10737418 5368715 5368716 5368715 5368714 5368734 5368735 5368734 5368733 5368734 5368735 5368736 5368735 
5368709 5368709 5368709 5368709 5368709 5368709 5368709 5368709 5368709 5368709 5368735 5368736 5368737 5368736 5368737 5368738 5368739 5368738 5368727 5368728 5368729 5368728 5368722 5368723 5368724 5368723 5368736 5368737 5368738 5368737 5368726 5368727 5368726 5368725 10737418 999999 0 10737418 5368714 5368715 5368716 5368715 5368733 5368734 5368733 5368732 5368735 5368736 5368737 5368736 
5368709 5368709 5368709 5368709 5368709 5368709 5368709 5368709 5368709 5368709 5368736 5368735 5368736 5368737 5368736 5368737 5368738 5368737 5368726 5368727 5368728 5368727 5368721 5368722 5368723 5368722 5368737 5368736 5368737 5368738 5368727 5368726 5368725 5368726 10737418 10737418 999999 0 5368713 5368714 5368715 5368714 5368734 5368733 5368732 5368733 5368736 5368735 5368736 5368737 
5368709 5368709 5368709 5368709 5368709 5368709 5368709 5368709 5368709 5368709 5368735 5368734 5368735 5368736 5368737 5368738 5368737 5368736 5368727 5368728 5368727 5368726 5368722 5368723 5368722 5368721 5368736 5368735 5368736 5368737 5368728 5368727 5368726 5368727 0 10737418 10737418 999999 5368714 5368715 5368714 5368713 5368735 5368734 5368733 5368734 5368735 5368734 5368735 5368736 
5368709 5368709 5368709 5368709 5368709 5368709 5368709 5368709 5368709 5368709 5368733 5368734 5368735 5368734 5368735 5368736 5368735 5368734 5368725 5368726 5368725 5368724 5368720 5368721 5368720 5368719 5368734 5368735 5368736 5368735 5368728 5368729 5368728 5368727 5368715 5368714 5368713 5368714 999999 0 10737418 10737418 5368735 5368736 5368735 5368734 5368733 5368734 5368735 5368734 
5368709 5368709 5368709 5368709 5368709 5368709 5368709 5368709 5368709 5368709 5368734 5368735 5368736 5368735 5368734 5368735 5368736 5368735 5368724 5368725 5368726 5368725 5368719 5368720 5368721 5368720 5368735 5368736 5368737 5368736 5368727 5368728 5368727 5368726 5368714 5368713 5368714 5368715 10737418 999999 0 10737418 5368734 5368735 5368734 5368733 5368734 5368735 5368736 5368735 
5368709 5368709 5368709 5368709 5368709 5368709 5368709 5368709 5368709 5368709 5368735 5368734 5368735 5368736 5368733 5368734 5368735 5368734 5368723 5368724 5368725 5368724 5368718 5368719 5368720 5368719 5368736 5368735 5368736 5368737 5368728 5368727 5368726 5368727 5368715 5368714 5368715 5368716 10737418 10737418 999999 0 5368735 5368734 5368733 5368734 5368735 5368734 5368735 5368736 
5368709 5368709 5368709 5368709 5368709 5368709 5368709 5368709 5368709 5368709 5368734 5368733 5368734 5368735 5368734 5368735 5368734 5368733 5368724 5368725 5368724 5368723 5368719 5368720 5368719 5368718 5368735 5368734 5368735 5368736 5368729 5368728 5368727 5368728 5368716 5368715 5368714 5368715 0 10737418 10737418 999999 5368736 5368735 5368734 5368735 5368734 5368733 5368734 5368735 
5368709 5368709 5368709 5368709 5368709 5368709 5368709 5368709 5368709 5368709 5368756 5368757 5368758 5368757 5368724 5368725 5368726 5368725 5368740 5368741 5368742 5368741 5368739 5368740 5368741 5368740 5368757 5368758 5368759 5368758 5368717 5368718 5368719 5368718 5368732 5368733 5368734 5368733 5368733 5368734 5368735 5368734 999999 0 10737418 10737418 5368756 5368757 5368758 5368757 
5368709 5368709 5368709 5368709 5368709 5368709 5368709 5368709 5368709 5368709 5368757 5368758 5368759 5368758 5368725 5368726 5368727 5368726 5368741 5368742 5368743 5368742 5368740 5368741 5368742 5368741 5368758 5368759 5368760 5368759 5368718 5368719 5368720 5368719 5368733 5368734 5368735 5368734 5368734 5368735 5368736 5368735 10737418 999999 0 10737418 5368757 5368758 5368759 5368758 
5368709 5368709 5368709 5368709 5368709 5368709 5368709 5368709 5368709 5368709 5368758 5368757 5368758 5368759 5368726 5368725 5368726 5368727 5368742 5368741 5368742 5368743 5368741 5368740 5368741 5368742 5368759 5368758 5368759 5368760 5368719 5368718 5368719 5368720 5368734 5368733 5368734 5368735 5368735 5368734 5368735 5368736 10737418 10737418 999999 0 5368758 5368757 5368758 5368759 
5368709 5368709 5368709 5368709 5368709 5368709 5368709 5368709 5368709 5368709 5368757 5368756 5368757 5368758 5368725 5368724 5368725 5368726 5368741 5368740 5368741 5368742 5368740 5368739 5368740 5368741 5368758 5368757 5368758 5368759 5368718 5368717 5368718 5368719 5368733 5368732 5368733 5368734 5368734 5368733 5368734 5368735 0 10737418 10737418 999999 5368757 5368756 5368757 5368758 
5368709 5368709 5368709 5368709 5368709 5368709 5368709 5368709 5368709 5368709 5368714 5368713 5368712 5368713 5368744 5368745 5368744 5368743 5368728 5368729 5368728 5368727 5368729 5368730 5368729 5368728 5368717 5368716 5368715 5368716 5368751 5368752 5368751 5368750 5368736 5368737 5368736 5368735 5368735 5368736 5368735 5368734 5368758 5368759 5368758 5368757 999999 0 10737418 10737418 
5368709 5368709 5368709 5368709 5368709 5368709 5368709 5368709 5368709 5368709 5368713 5368712 5368713 5368714 5368743 5368744 5368743 5368742 5368727 5368728 5368727 5368726 5368728 5368729 5368728 5368727 5368716 5368715 5368716 5368717 5368750 5368751 5368750 5368749 5368735 5368736 5368735 5368734 5368734 5368735 5368734 5368733 5368757 5368758 5368757 5368756 10737418 999999 0 10737418 
5368709 5368709 5368709 5368709 5368709 5368709 5368709 5368709 5368709 5368709 5368714 5368713 5368714 5368715 5368744 5368743 5368742 5368743 5368728 5368727 5368726 5368727 5368729 5368728 5368727 5368728 5368717 5368716 5368717 5368718 5368751 5368750 5368749 5368750 5368736 5368735 5368734 5368735 5368735 5368734 5368733 5368734 5368758 5368757 5368756 5368757 10737418 10737418 999999 0 
5368709 5368709 5368709 5368709 5368709 5368709 5368709 5368709 5368709 5368709 5368715 5368714 5368713 5368714 5368745 5368744 5368743 5368744 5368729 5368728 5368727 5368728 5368730 5368729 5368728 5368729 5368718 5368717 5368716 5368717 5368752 5368751 5368750 5368751 5368737 5368736 5368735 5368736 5368736 5368735 5368734 5368735 5368759 5368758 5368757 5368758 0 10737418 10737418 999999 
EOF
