GLKH-1.1/TMP/mEgtspf.pid12922.tour
NAME : mEgtspf.pid12922.gtsp.107374245.tour
COMMENT : Length = 107374245
COMMENT : Found by LKH [Keld Helsgaun] Tue Apr 22 00:28:24 2025
TYPE : TOUR
DIMENSION : 50
TOUR_SECTION
1
15
16
17
18
6
21
22
19
20
24
25
26
23
8
10
9
40
41
42
39
37
38
35
36
2
5
7
4
47
48
49
50
13
14
11
12
28
29
30
27
3
43
44
45
46
32
33
34
31
-1
EOF
